data/instances/vrp_files/train_29.vrp
NAME : 29
COMMENT : Generated instance No. 29
TYPE : CVRP
DIMENSION : 21
EDGE_WEIGHT_TYPE : EUC_2D
CAPACITY : 30
NODE_COORD_SECTION
 1 983 239
 2 173 694
 3 346 975
 4 640 822
 5 132 862
 6 922 487
 7 606 764
 8 174 502
 9 398 146
 10 367 68
 11 25 135
 12 963 549
 13 965 432
 14 311 506
 15 439 105
 16 640 216
 17 619 650
 18 152 61
 19 780 459
 20 58 994
 21 57 695
DEMAND_SECTION
1 0
2 3
3 5
4 9
5 3
6 7
7 1
8 4
9 4
10 7
11 8
12 1
13 5
14 7
15 4
16 4
17 4
18 6
19 7
20 2
21 5
DEPOT_SECTION
 1
 -1
EOF